100
128
16
50
5
18
6
32
8
16
4
12
19
34
34
57
41
16
29
41
10
20
28
25
43
59
14
55
28
28
36
41
38
5
13
48
26
13
38
58
33
13
52
18
18
39
6
18
11
18
22
17
15
12
26
21
38
21
48
15
3
55
23
62
23
49
41
51
20
57
34
32
62
34
61
2
49
30
63
64
1
48
30
42
31
53
1
44
43
63
63
62
64
47
44
63
63
40
37
64
64
1